--------------------------------------------------------------------------------(Solver execution current time: 0.0001480579376220703)
[INFO] Input Seed : 0
--------------------------------------------------------------------------------(Solver execution current time: 0.0001761913299560547)
[INFO] Input time limit : 20
--------------------------------------------------------------------------------(Solver execution current time: 0.00020003318786621094)
[INFO] Command line arguments read with no errors.
--------------------------------------------------------------------------------(Solver execution current time: 0.014949560165405273)
[INFO] Input file read with no errors.
--------------------------------------------------------------------------------(Solver execution current time: 0.015036582946777344)
[INFO] Starting solver.
--------------------------------------------------------------------------------(Solver execution current time: 0.015070915222167969)
[INFO] Starting construction
--------------------------------------------------------------------------------(Solver execution current time: 2.366391658782959)
[INFO] Finished construction
--------------------------------------------------------------------------------(Solver execution current time: 2.3664729595184326)
[SOLUTION]
Basic Greedy Heuristic
Exec Time: 2.351318359375
obj_value: -48; obj_routes: 1770
Route 1 : 45 21 95 71 3 31 53 81 
Route 2 : 23 7 73 57 33 44 83 94 
Route 3 : 12 25 75 62 16 37 66 87 
Route 4 : 34 22 43 72 93 84 
Route 5 : 17 67 9 1 51 59 
Route 6 : 38 88 11 39 61 26 89 76 
Route 7 : 47 97 40 41 90 91 36 86 
Route 8 : 49 99 2 15 52 65 
Route 9 : 20 5 30 70 80 24 55 74 
Route 10 : 46 42 96 35 10 60 92 85 
Route 11 : 8 32 82 58 19 29 79 69 
Route 12 : 13 27 63 77 
Route 13 : 6 56 48 98 18 68 
Route 14 : 4 14 64 54 

--------------------------------------------------------------------------------(Solver execution current time: 2.367454767227173)
[INFO] Starting metaheuristic
--------------------------------------------------------------------------------(Solver execution current time: 2.371157646179199)
[INFO] AGES EXCLUDED
--------------------------------------------------------------------------------(Solver execution current time: 3.604830026626587)
[SOLUTION]
LNS
IT: 40
Exec Time: 1.230318546295166
obj_value: -48; obj_routes: 1770
Route 1 : 45 21 95 71 3 31 53 81 
Route 2 : 23 7 73 57 33 44 83 94 
Route 3 : 12 25 75 62 16 37 66 87 
Route 4 : 34 22 43 72 93 84 
Route 5 : 17 67 9 1 51 59 
Route 6 : 38 88 11 39 61 26 89 76 
Route 7 : 47 97 40 41 90 91 36 86 
Route 8 : 49 99 2 15 52 65 
Route 9 : 20 5 30 70 80 24 55 74 
Route 10 : 46 42 96 35 10 60 92 85 
Route 11 : 8 32 82 58 19 29 79 69 
Route 12 : 13 27 63 77 
Route 13 : 6 56 48 98 18 68 
Route 14 : 4 14 64 54 

--------------------------------------------------------------------------------(Solver execution current time: 3.676525592803955)
[SOLUTION]
PartitionMaxRequests
Exec Time: 0.06905698776245117
obj_value: -48; obj_routes: 1770
Route 1 : 45 21 95 71 3 31 53 81 
Route 2 : 23 7 73 57 33 44 83 94 
Route 3 : 12 25 75 62 16 37 66 87 
Route 4 : 34 22 43 72 93 84 
Route 5 : 17 67 9 1 51 59 
Route 6 : 38 88 11 39 61 26 89 76 
Route 7 : 47 97 40 41 90 91 36 86 
Route 8 : 49 99 2 15 52 65 
Route 9 : 20 5 30 70 80 24 55 74 
Route 10 : 46 42 96 35 10 60 92 85 
Route 11 : 8 32 82 58 19 29 79 69 
Route 12 : 13 27 63 77 
Route 13 : 6 56 48 98 18 68 
Route 14 : 4 14 64 54 

--------------------------------------------------------------------------------(Solver execution current time: 4.502241134643555)
[SOLUTION]
Original Perturbation
Exec Time: 0.8249249458312988
obj_value: -48; obj_routes: 1770
Route 1 : 45 21 95 71 3 31 53 81 
Route 2 : 23 7 73 57 33 44 83 94 
Route 3 : 12 25 75 62 16 37 66 87 
Route 4 : 34 22 43 72 93 84 
Route 5 : 17 67 9 1 51 59 
Route 6 : 38 88 11 39 61 26 89 76 
Route 7 : 47 97 40 41 90 91 36 86 
Route 8 : 49 99 2 15 52 65 
Route 9 : 20 5 30 70 80 24 55 74 
Route 10 : 46 42 96 35 10 60 92 85 
Route 11 : 8 32 82 58 19 29 79 69 
Route 12 : 13 27 63 77 
Route 13 : 6 56 48 98 18 68 
Route 14 : 4 14 64 54 

--------------------------------------------------------------------------------(Solver execution current time: 4.503384113311768)
[SOLUTION]
SBMath
IT: 1
ITs witout improving: 1
IT time: 2.132230281829834
Time since begin: 2.1338577270507812
obj_value: -48; obj_routes: 1770
Route 1 : 45 21 95 71 3 31 53 81 
Route 2 : 23 7 73 57 33 44 83 94 
Route 3 : 12 25 75 62 16 37 66 87 
Route 4 : 34 22 43 72 93 84 
Route 5 : 17 67 9 1 51 59 
Route 6 : 38 88 11 39 61 26 89 76 
Route 7 : 47 97 40 41 90 91 36 86 
Route 8 : 49 99 2 15 52 65 
Route 9 : 20 5 30 70 80 24 55 74 
Route 10 : 46 42 96 35 10 60 92 85 
Route 11 : 8 32 82 58 19 29 79 69 
Route 12 : 13 27 63 77 
Route 13 : 6 56 48 98 18 68 
Route 14 : 4 14 64 54 

--------------------------------------------------------------------------------(Solver execution current time: 4.5035741329193115)
[SOLUTION]
SBMath
IT: 1
ITs witout improving: 1
IT time: 2.132230281829834
Time since begin: 2.1338577270507812
obj_value: -48; obj_routes: 1770
Route 1 : 45 21 95 71 3 31 53 81 
Route 2 : 23 7 73 57 33 44 83 94 
Route 3 : 12 25 75 62 16 37 66 87 
Route 4 : 34 22 43 72 93 84 
Route 5 : 17 67 9 1 51 59 
Route 6 : 38 88 11 39 61 26 89 76 
Route 7 : 47 97 40 41 90 91 36 86 
Route 8 : 49 99 2 15 52 65 
Route 9 : 20 5 30 70 80 24 55 74 
Route 10 : 46 42 96 35 10 60 92 85 
Route 11 : 8 32 82 58 19 29 79 69 
Route 12 : 13 27 63 77 
Route 13 : 6 56 48 98 18 68 
Route 14 : 4 14 64 54 

--------------------------------------------------------------------------------(Solver execution current time: 4.5045013427734375)
[INFO] AGES EXCLUDED
--------------------------------------------------------------------------------(Solver execution current time: 5.740394353866577)
[SOLUTION]
LNS
IT: 40
Exec Time: 1.232600450515747
obj_value: -48; obj_routes: 1770
Route 1 : 45 21 95 71 3 31 53 81 
Route 2 : 23 7 73 57 33 44 83 94 
Route 3 : 12 25 75 62 16 37 66 87 
Route 4 : 34 22 43 72 93 84 
Route 5 : 17 67 9 1 51 59 
Route 6 : 38 88 11 39 61 26 89 76 
Route 7 : 47 97 40 41 90 91 36 86 
Route 8 : 49 99 2 15 52 65 
Route 9 : 20 5 30 70 80 24 55 74 
Route 10 : 46 42 96 35 10 60 92 85 
Route 11 : 8 32 82 58 19 29 79 69 
Route 12 : 13 27 63 77 
Route 13 : 6 56 48 98 18 68 
Route 14 : 4 14 64 54 

--------------------------------------------------------------------------------(Solver execution current time: 5.751387357711792)
[SOLUTION]
PartitionMaxRequests
Exec Time: 0.007972002029418945
obj_value: -48; obj_routes: 1770
Route 1 : 45 21 95 71 3 31 53 81 
Route 2 : 23 7 73 57 33 44 83 94 
Route 3 : 12 25 75 62 16 37 66 87 
Route 4 : 34 22 43 72 93 84 
Route 5 : 17 67 9 1 51 59 
Route 6 : 38 88 11 39 61 26 89 76 
Route 7 : 47 97 40 41 90 91 36 86 
Route 8 : 49 99 2 15 52 65 
Route 9 : 20 5 30 70 80 24 55 74 
Route 10 : 46 42 96 35 10 60 92 85 
Route 11 : 8 32 82 58 19 29 79 69 
Route 12 : 13 27 63 77 
Route 13 : 6 56 48 98 18 68 
Route 14 : 4 14 64 54 

--------------------------------------------------------------------------------(Solver execution current time: 7.403133869171143)
[SOLUTION]
Original Perturbation
Exec Time: 1.6509222984313965
obj_value: -48; obj_routes: 1770
Route 1 : 45 21 95 71 3 31 53 81 
Route 2 : 23 7 73 57 33 44 83 94 
Route 3 : 12 25 75 62 16 37 66 87 
Route 4 : 34 22 43 72 93 84 
Route 5 : 17 67 9 1 51 59 
Route 6 : 38 88 11 39 61 26 89 76 
Route 7 : 47 97 40 41 90 91 36 86 
Route 8 : 49 99 2 15 52 65 
Route 9 : 20 5 30 70 80 24 55 74 
Route 10 : 46 42 96 35 10 60 92 85 
Route 11 : 8 32 82 58 19 29 79 69 
Route 12 : 13 27 63 77 
Route 13 : 6 56 48 98 18 68 
Route 14 : 4 14 64 54 

--------------------------------------------------------------------------------(Solver execution current time: 7.404306650161743)
[SOLUTION]
SBMath
IT: 2
ITs witout improving: 2
IT time: 2.8998100757598877
Time since begin: 5.034780979156494
obj_value: -48; obj_routes: 1770
Route 1 : 45 21 95 71 3 31 53 81 
Route 2 : 23 7 73 57 33 44 83 94 
Route 3 : 12 25 75 62 16 37 66 87 
Route 4 : 34 22 43 72 93 84 
Route 5 : 17 67 9 1 51 59 
Route 6 : 38 88 11 39 61 26 89 76 
Route 7 : 47 97 40 41 90 91 36 86 
Route 8 : 49 99 2 15 52 65 
Route 9 : 20 5 30 70 80 24 55 74 
Route 10 : 46 42 96 35 10 60 92 85 
Route 11 : 8 32 82 58 19 29 79 69 
Route 12 : 13 27 63 77 
Route 13 : 6 56 48 98 18 68 
Route 14 : 4 14 64 54 

--------------------------------------------------------------------------------(Solver execution current time: 7.404514789581299)
[SOLUTION]
SBMath
IT: 2
ITs witout improving: 2
IT time: 2.8998100757598877
Time since begin: 5.034780979156494
obj_value: -48; obj_routes: 1765
Route 1 : 45 21 95 71 3 31 53 81 
Route 2 : 23 7 73 57 33 24 83 74 
Route 3 : 12 25 75 62 16 37 66 87 
Route 4 : 34 22 43 72 93 84 
Route 5 : 17 67 9 1 51 59 
Route 6 : 38 88 11 39 61 26 89 76 
Route 7 : 47 97 40 41 90 91 36 86 
Route 8 : 49 99 2 15 52 65 
Route 9 : 20 5 30 70 80 44 55 94 
Route 10 : 46 42 96 35 10 60 92 85 
Route 11 : 8 32 82 58 29 79 
Route 12 : 13 27 63 77 
Route 13 : 6 56 48 98 18 68 
Route 14 : 4 14 64 19 54 69 

--------------------------------------------------------------------------------(Solver execution current time: 7.405458450317383)
[INFO] AGES EXCLUDED
--------------------------------------------------------------------------------(Solver execution current time: 8.34417176246643)
[SOLUTION]
LNS
IT: 40
Exec Time: 0.9353747367858887
obj_value: -48; obj_routes: 1770
Route 1 : 45 21 95 71 3 31 53 81 
Route 2 : 23 7 73 57 33 44 83 94 
Route 3 : 12 25 75 62 16 37 66 87 
Route 4 : 34 22 43 72 93 84 
Route 5 : 17 67 9 1 51 59 
Route 6 : 38 88 11 39 61 26 89 76 
Route 7 : 47 97 40 41 90 91 36 86 
Route 8 : 49 99 2 15 52 65 
Route 9 : 20 5 30 70 80 24 55 74 
Route 10 : 46 42 96 35 10 60 92 85 
Route 11 : 8 32 82 58 19 29 79 69 
Route 12 : 13 27 63 77 
Route 13 : 6 56 48 98 18 68 
Route 14 : 4 14 64 54 

--------------------------------------------------------------------------------(Solver execution current time: 8.365134716033936)
[SOLUTION]
PartitionMaxRequests
Exec Time: 0.014175891876220703
obj_value: -48; obj_routes: 1770
Route 1 : 45 21 95 71 3 31 53 81 
Route 2 : 23 7 73 57 33 44 83 94 
Route 3 : 12 25 75 62 16 37 66 87 
Route 4 : 34 22 43 72 93 84 
Route 5 : 17 67 9 1 51 59 
Route 6 : 38 88 11 39 61 26 89 76 
Route 7 : 47 97 40 41 90 91 36 86 
Route 8 : 49 99 2 15 52 65 
Route 9 : 20 5 30 70 80 24 55 74 
Route 10 : 46 42 96 35 10 60 92 85 
Route 11 : 8 32 82 58 19 29 79 69 
Route 12 : 13 27 63 77 
Route 13 : 6 56 48 98 18 68 
Route 14 : 4 14 64 54 

--------------------------------------------------------------------------------(Solver execution current time: 9.53129529953003)
[SOLUTION]
Original Perturbation
Exec Time: 1.1650197505950928
obj_value: -48; obj_routes: 1770
Route 1 : 45 21 95 71 3 31 53 81 
Route 2 : 23 7 73 57 33 44 83 94 
Route 3 : 12 25 75 62 16 37 66 87 
Route 4 : 34 22 43 72 93 84 
Route 5 : 17 67 9 1 51 59 
Route 6 : 38 88 11 39 61 26 89 76 
Route 7 : 47 97 40 41 90 91 36 86 
Route 8 : 49 99 2 15 52 65 
Route 9 : 20 5 30 70 80 24 55 74 
Route 10 : 46 42 96 35 10 60 92 85 
Route 11 : 8 32 82 58 19 29 79 69 
Route 12 : 13 27 63 77 
Route 13 : 6 56 48 98 18 68 
Route 14 : 4 14 64 54 

--------------------------------------------------------------------------------(Solver execution current time: 9.532478094100952)
[SOLUTION]
SBMath
IT: 3
ITs witout improving: 3
IT time: 2.127023458480835
Time since begin: 7.162952184677124
obj_value: -48; obj_routes: 1770
Route 1 : 45 21 95 71 3 31 53 81 
Route 2 : 23 7 73 57 33 44 83 94 
Route 3 : 12 25 75 62 16 37 66 87 
Route 4 : 34 22 43 72 93 84 
Route 5 : 17 67 9 1 51 59 
Route 6 : 38 88 11 39 61 26 89 76 
Route 7 : 47 97 40 41 90 91 36 86 
Route 8 : 49 99 2 15 52 65 
Route 9 : 20 5 30 70 80 24 55 74 
Route 10 : 46 42 96 35 10 60 92 85 
Route 11 : 8 32 82 58 19 29 79 69 
Route 12 : 13 27 63 77 
Route 13 : 6 56 48 98 18 68 
Route 14 : 4 14 64 54 

--------------------------------------------------------------------------------(Solver execution current time: 9.532678127288818)
[SOLUTION]
SBMath
IT: 3
ITs witout improving: 3
IT time: 2.127023458480835
Time since begin: 7.162952184677124
obj_value: -48; obj_routes: 1765
Route 1 : 45 21 95 71 3 31 53 81 
Route 2 : 23 7 73 57 33 24 83 74 
Route 3 : 12 25 75 62 16 37 66 87 
Route 4 : 34 22 43 72 93 84 
Route 5 : 17 67 9 1 51 59 
Route 6 : 38 88 11 39 61 26 89 76 
Route 7 : 47 97 40 41 90 91 36 86 
Route 8 : 49 99 2 15 52 65 
Route 9 : 20 5 30 70 80 44 55 94 
Route 10 : 46 42 96 35 10 60 92 85 
Route 11 : 8 32 82 58 29 79 
Route 12 : 13 27 63 77 
Route 13 : 6 56 48 98 18 68 
Route 14 : 4 14 64 19 54 69 

--------------------------------------------------------------------------------(Solver execution current time: 9.533655166625977)
[INFO] AGES EXCLUDED
--------------------------------------------------------------------------------(Solver execution current time: 10.180637121200562)
[SOLUTION]
LNS
IT: 40
Exec Time: 0.6437277793884277
obj_value: -48; obj_routes: 1770
Route 1 : 45 21 95 71 3 31 53 81 
Route 2 : 23 7 73 57 33 44 83 94 
Route 3 : 12 25 75 62 16 37 66 87 
Route 4 : 34 22 43 72 93 84 
Route 5 : 17 67 9 1 51 59 
Route 6 : 38 88 11 39 61 26 89 76 
Route 7 : 47 97 40 41 90 91 36 86 
Route 8 : 49 99 2 15 52 65 
Route 9 : 20 5 30 70 80 24 55 74 
Route 10 : 46 42 96 35 10 60 92 85 
Route 11 : 8 32 82 58 19 29 79 69 
Route 12 : 13 27 63 77 
Route 13 : 6 56 48 98 18 68 
Route 14 : 4 14 64 54 

--------------------------------------------------------------------------------(Solver execution current time: 10.191052675247192)
[SOLUTION]
PartitionMaxRequests
Exec Time: 0.00811767578125
obj_value: -48; obj_routes: 1770
Route 1 : 45 21 95 71 3 31 53 81 
Route 2 : 23 7 73 57 33 44 83 94 
Route 3 : 12 25 75 62 16 37 66 87 
Route 4 : 34 22 43 72 93 84 
Route 5 : 17 67 9 1 51 59 
Route 6 : 38 88 11 39 61 26 89 76 
Route 7 : 47 97 40 41 90 91 36 86 
Route 8 : 49 99 2 15 52 65 
Route 9 : 20 5 30 70 80 24 55 74 
Route 10 : 46 42 96 35 10 60 92 85 
Route 11 : 8 32 82 58 19 29 79 69 
Route 12 : 13 27 63 77 
Route 13 : 6 56 48 98 18 68 
Route 14 : 4 14 64 54 

--------------------------------------------------------------------------------(Solver execution current time: 10.833175659179688)
[SOLUTION]
Original Perturbation
Exec Time: 0.6411495208740234
obj_value: -48; obj_routes: 1770
Route 1 : 45 21 95 71 3 31 53 81 
Route 2 : 23 7 73 57 33 44 83 94 
Route 3 : 12 25 75 62 16 37 66 87 
Route 4 : 34 22 43 72 93 84 
Route 5 : 17 67 9 1 51 59 
Route 6 : 38 88 11 39 61 26 89 76 
Route 7 : 47 97 40 41 90 91 36 86 
Route 8 : 49 99 2 15 52 65 
Route 9 : 20 5 30 70 80 24 55 74 
Route 10 : 46 42 96 35 10 60 92 85 
Route 11 : 8 32 82 58 19 29 79 69 
Route 12 : 13 27 63 77 
Route 13 : 6 56 48 98 18 68 
Route 14 : 4 14 64 54 

--------------------------------------------------------------------------------(Solver execution current time: 10.834402084350586)
[SOLUTION]
SBMath
IT: 4
ITs witout improving: 4
IT time: 1.300752878189087
Time since begin: 8.464876651763916
obj_value: -48; obj_routes: 1770
Route 1 : 45 21 95 71 3 31 53 81 
Route 2 : 23 7 73 57 33 44 83 94 
Route 3 : 12 25 75 62 16 37 66 87 
Route 4 : 34 22 43 72 93 84 
Route 5 : 17 67 9 1 51 59 
Route 6 : 38 88 11 39 61 26 89 76 
Route 7 : 47 97 40 41 90 91 36 86 
Route 8 : 49 99 2 15 52 65 
Route 9 : 20 5 30 70 80 24 55 74 
Route 10 : 46 42 96 35 10 60 92 85 
Route 11 : 8 32 82 58 19 29 79 69 
Route 12 : 13 27 63 77 
Route 13 : 6 56 48 98 18 68 
Route 14 : 4 14 64 54 

--------------------------------------------------------------------------------(Solver execution current time: 10.834608793258667)
[SOLUTION]
SBMath
IT: 4
ITs witout improving: 4
IT time: 1.300752878189087
Time since begin: 8.464876651763916
obj_value: -48; obj_routes: 1765
Route 1 : 45 21 95 71 3 31 53 81 
Route 2 : 23 7 73 57 33 24 83 74 
Route 3 : 12 25 75 62 16 37 66 87 
Route 4 : 34 22 43 72 93 84 
Route 5 : 17 67 9 1 51 59 
Route 6 : 38 88 11 39 61 26 89 76 
Route 7 : 47 97 40 41 90 91 36 86 
Route 8 : 49 99 2 15 52 65 
Route 9 : 20 5 30 70 80 44 55 94 
Route 10 : 46 42 96 35 10 60 92 85 
Route 11 : 8 32 82 58 29 79 
Route 12 : 13 27 63 77 
Route 13 : 6 56 48 98 18 68 
Route 14 : 4 14 64 19 54 69 

--------------------------------------------------------------------------------(Solver execution current time: 10.835553884506226)
[INFO] AGES EXCLUDED
--------------------------------------------------------------------------------(Solver execution current time: 11.47534990310669)
[SOLUTION]
LNS
IT: 40
Exec Time: 0.6364262104034424
obj_value: -48; obj_routes: 1770
Route 1 : 45 21 95 71 3 31 53 81 
Route 2 : 23 7 73 57 33 44 83 94 
Route 3 : 12 25 75 62 16 37 66 87 
Route 4 : 34 22 43 72 93 84 
Route 5 : 17 67 9 1 51 59 
Route 6 : 38 88 11 39 61 26 89 76 
Route 7 : 47 97 40 41 90 91 36 86 
Route 8 : 49 99 2 15 52 65 
Route 9 : 20 5 30 70 80 24 55 74 
Route 10 : 46 42 96 35 10 60 92 85 
Route 11 : 8 32 82 58 19 29 79 69 
Route 12 : 13 27 63 77 
Route 13 : 6 56 48 98 18 68 
Route 14 : 4 14 64 54 

--------------------------------------------------------------------------------(Solver execution current time: 11.485220670700073)
[SOLUTION]
PartitionMaxRequests
Exec Time: 0.007567882537841797
obj_value: -48; obj_routes: 1770
Route 1 : 45 21 95 71 3 31 53 81 
Route 2 : 23 7 73 57 33 44 83 94 
Route 3 : 12 25 75 62 16 37 66 87 
Route 4 : 34 22 43 72 93 84 
Route 5 : 17 67 9 1 51 59 
Route 6 : 38 88 11 39 61 26 89 76 
Route 7 : 47 97 40 41 90 91 36 86 
Route 8 : 49 99 2 15 52 65 
Route 9 : 20 5 30 70 80 24 55 74 
Route 10 : 46 42 96 35 10 60 92 85 
Route 11 : 8 32 82 58 19 29 79 69 
Route 12 : 13 27 63 77 
Route 13 : 6 56 48 98 18 68 
Route 14 : 4 14 64 54 

--------------------------------------------------------------------------------(Solver execution current time: 12.098895072937012)
[SOLUTION]
Original Perturbation
Exec Time: 0.6128053665161133
obj_value: -48; obj_routes: 1770
Route 1 : 45 21 95 71 3 31 53 81 
Route 2 : 23 7 73 57 33 44 83 94 
Route 3 : 12 25 75 62 16 37 66 87 
Route 4 : 34 22 43 72 93 84 
Route 5 : 17 67 9 1 51 59 
Route 6 : 38 88 11 39 61 26 89 76 
Route 7 : 47 97 40 41 90 91 36 86 
Route 8 : 49 99 2 15 52 65 
Route 9 : 20 5 30 70 80 24 55 74 
Route 10 : 46 42 96 35 10 60 92 85 
Route 11 : 8 32 82 58 19 29 79 69 
Route 12 : 13 27 63 77 
Route 13 : 6 56 48 98 18 68 
Route 14 : 4 14 64 54 

--------------------------------------------------------------------------------(Solver execution current time: 12.10010576248169)
[SOLUTION]
SBMath
IT: 5
ITs witout improving: 5
IT time: 1.2645573616027832
Time since begin: 9.73058009147644
obj_value: -48; obj_routes: 1770
Route 1 : 45 21 95 71 3 31 53 81 
Route 2 : 23 7 73 57 33 44 83 94 
Route 3 : 12 25 75 62 16 37 66 87 
Route 4 : 34 22 43 72 93 84 
Route 5 : 17 67 9 1 51 59 
Route 6 : 38 88 11 39 61 26 89 76 
Route 7 : 47 97 40 41 90 91 36 86 
Route 8 : 49 99 2 15 52 65 
Route 9 : 20 5 30 70 80 24 55 74 
Route 10 : 46 42 96 35 10 60 92 85 
Route 11 : 8 32 82 58 19 29 79 69 
Route 12 : 13 27 63 77 
Route 13 : 6 56 48 98 18 68 
Route 14 : 4 14 64 54 

--------------------------------------------------------------------------------(Solver execution current time: 12.100325107574463)
[SOLUTION]
SBMath
IT: 5
ITs witout improving: 5
IT time: 1.2645573616027832
Time since begin: 9.73058009147644
obj_value: -48; obj_routes: 1752
Route 1 : 45 21 95 71 3 31 53 81 
Route 2 : 23 7 73 57 44 94 
Route 3 : 12 25 75 62 16 37 66 87 
Route 4 : 34 22 43 72 93 84 
Route 5 : 17 67 9 1 51 59 
Route 6 : 38 88 11 39 61 26 89 76 
Route 7 : 47 97 40 41 90 91 36 86 
Route 8 : 49 99 2 15 52 65 
Route 9 : 20 5 30 70 80 24 55 74 
Route 10 : 46 42 96 35 10 60 92 85 
Route 11 : 8 32 82 58 19 29 79 69 
Route 12 : 13 63 18 68 
Route 13 : 6 56 48 98 27 77 
Route 14 : 4 14 64 33 54 83 

--------------------------------------------------------------------------------(Solver execution current time: 12.101338624954224)
[INFO] AGES EXCLUDED
--------------------------------------------------------------------------------(Solver execution current time: 12.722246885299683)
[SOLUTION]
LNS
IT: 40
Exec Time: 0.6176059246063232
obj_value: -48; obj_routes: 1770
Route 1 : 45 21 95 71 3 31 53 81 
Route 2 : 23 7 73 57 33 44 83 94 
Route 3 : 12 25 75 62 16 37 66 87 
Route 4 : 34 22 43 72 93 84 
Route 5 : 17 67 9 1 51 59 
Route 6 : 38 88 11 39 61 26 89 76 
Route 7 : 47 97 40 41 90 91 36 86 
Route 8 : 49 99 2 15 52 65 
Route 9 : 20 5 30 70 80 24 55 74 
Route 10 : 46 42 96 35 10 60 92 85 
Route 11 : 8 32 82 58 19 29 79 69 
Route 12 : 13 27 63 77 
Route 13 : 6 56 48 98 18 68 
Route 14 : 4 14 64 54 

--------------------------------------------------------------------------------(Solver execution current time: 12.731928825378418)
[SOLUTION]
PartitionMaxRequests
Exec Time: 0.007483720779418945
obj_value: -48; obj_routes: 1770
Route 1 : 45 21 95 71 3 31 53 81 
Route 2 : 23 7 73 57 33 44 83 94 
Route 3 : 12 25 75 62 16 37 66 87 
Route 4 : 34 22 43 72 93 84 
Route 5 : 17 67 9 1 51 59 
Route 6 : 38 88 11 39 61 26 89 76 
Route 7 : 47 97 40 41 90 91 36 86 
Route 8 : 49 99 2 15 52 65 
Route 9 : 20 5 30 70 80 24 55 74 
Route 10 : 46 42 96 35 10 60 92 85 
Route 11 : 8 32 82 58 19 29 79 69 
Route 12 : 13 27 63 77 
Route 13 : 6 56 48 98 18 68 
Route 14 : 4 14 64 54 

--------------------------------------------------------------------------------(Solver execution current time: 13.36039423942566)
[SOLUTION]
Original Perturbation
Exec Time: 0.6275756359100342
obj_value: -48; obj_routes: 1770
Route 1 : 45 21 95 71 3 31 53 81 
Route 2 : 23 7 73 57 33 44 83 94 
Route 3 : 12 25 75 62 16 37 66 87 
Route 4 : 34 22 43 72 93 84 
Route 5 : 17 67 9 1 51 59 
Route 6 : 38 88 11 39 61 26 89 76 
Route 7 : 47 97 40 41 90 91 36 86 
Route 8 : 49 99 2 15 52 65 
Route 9 : 20 5 30 70 80 24 55 74 
Route 10 : 46 42 96 35 10 60 92 85 
Route 11 : 8 32 82 58 19 29 79 69 
Route 12 : 13 27 63 77 
Route 13 : 6 56 48 98 18 68 
Route 14 : 4 14 64 54 

--------------------------------------------------------------------------------(Solver execution current time: 13.36165738105774)
[SOLUTION]
SBMath
IT: 6
ITs witout improving: 6
IT time: 1.2603247165679932
Time since begin: 10.992130994796753
obj_value: -48; obj_routes: 1770
Route 1 : 45 21 95 71 3 31 53 81 
Route 2 : 23 7 73 57 33 44 83 94 
Route 3 : 12 25 75 62 16 37 66 87 
Route 4 : 34 22 43 72 93 84 
Route 5 : 17 67 9 1 51 59 
Route 6 : 38 88 11 39 61 26 89 76 
Route 7 : 47 97 40 41 90 91 36 86 
Route 8 : 49 99 2 15 52 65 
Route 9 : 20 5 30 70 80 24 55 74 
Route 10 : 46 42 96 35 10 60 92 85 
Route 11 : 8 32 82 58 19 29 79 69 
Route 12 : 13 27 63 77 
Route 13 : 6 56 48 98 18 68 
Route 14 : 4 14 64 54 

--------------------------------------------------------------------------------(Solver execution current time: 13.361883640289307)
[SOLUTION]
SBMath
IT: 6
ITs witout improving: 6
IT time: 1.2603247165679932
Time since begin: 10.992130994796753
obj_value: -48; obj_routes: 1752
Route 1 : 45 21 95 71 3 31 53 81 
Route 2 : 23 7 73 57 44 94 
Route 3 : 12 25 75 62 16 37 66 87 
Route 4 : 34 22 43 72 93 84 
Route 5 : 17 67 9 1 51 59 
Route 6 : 38 88 11 39 61 26 89 76 
Route 7 : 47 97 40 41 90 91 36 86 
Route 8 : 49 99 2 15 52 65 
Route 9 : 20 5 30 70 80 24 55 74 
Route 10 : 46 42 96 35 10 60 92 85 
Route 11 : 8 32 82 58 19 29 79 69 
Route 12 : 13 63 18 68 
Route 13 : 6 56 48 98 27 77 
Route 14 : 4 14 64 33 54 83 

--------------------------------------------------------------------------------(Solver execution current time: 13.362895250320435)
[INFO] AGES EXCLUDED
--------------------------------------------------------------------------------(Solver execution current time: 14.04678988456726)
[SOLUTION]
LNS
IT: 40
Exec Time: 0.6804344654083252
obj_value: -48; obj_routes: 1770
Route 1 : 45 21 95 71 3 31 53 81 
Route 2 : 23 7 73 57 33 44 83 94 
Route 3 : 12 25 75 62 16 37 66 87 
Route 4 : 34 22 43 72 93 84 
Route 5 : 17 67 9 1 51 59 
Route 6 : 38 88 11 39 61 26 89 76 
Route 7 : 47 97 40 41 90 91 36 86 
Route 8 : 49 99 2 15 52 65 
Route 9 : 20 5 30 70 80 24 55 74 
Route 10 : 46 42 96 35 10 60 92 85 
Route 11 : 8 32 82 58 19 29 79 69 
Route 12 : 13 27 63 77 
Route 13 : 6 56 48 98 18 68 
Route 14 : 4 14 64 54 

--------------------------------------------------------------------------------(Solver execution current time: 14.056536674499512)
[SOLUTION]
PartitionMaxRequests
Exec Time: 0.007554054260253906
obj_value: -48; obj_routes: 1770
Route 1 : 45 21 95 71 3 31 53 81 
Route 2 : 23 7 73 57 33 44 83 94 
Route 3 : 12 25 75 62 16 37 66 87 
Route 4 : 34 22 43 72 93 84 
Route 5 : 17 67 9 1 51 59 
Route 6 : 38 88 11 39 61 26 89 76 
Route 7 : 47 97 40 41 90 91 36 86 
Route 8 : 49 99 2 15 52 65 
Route 9 : 20 5 30 70 80 24 55 74 
Route 10 : 46 42 96 35 10 60 92 85 
Route 11 : 8 32 82 58 19 29 79 69 
Route 12 : 13 27 63 77 
Route 13 : 6 56 48 98 18 68 
Route 14 : 4 14 64 54 

--------------------------------------------------------------------------------(Solver execution current time: 15.495684623718262)
[SOLUTION]
Original Perturbation
Exec Time: 1.438244104385376
obj_value: -48; obj_routes: 1770
Route 1 : 45 21 95 71 3 31 53 81 
Route 2 : 23 7 73 57 33 44 83 94 
Route 3 : 12 25 75 62 16 37 66 87 
Route 4 : 34 22 43 72 93 84 
Route 5 : 17 67 9 1 51 59 
Route 6 : 38 88 11 39 61 26 89 76 
Route 7 : 47 97 40 41 90 91 36 86 
Route 8 : 49 99 2 15 52 65 
Route 9 : 20 5 30 70 80 24 55 74 
Route 10 : 46 42 96 35 10 60 92 85 
Route 11 : 8 32 82 58 19 29 79 69 
Route 12 : 13 27 63 77 
Route 13 : 6 56 48 98 18 68 
Route 14 : 4 14 64 54 

--------------------------------------------------------------------------------(Solver execution current time: 15.497358083724976)
[SOLUTION]
SBMath
IT: 7
ITs witout improving: 7
IT time: 2.1344656944274902
Time since begin: 13.127830266952515
obj_value: -48; obj_routes: 1770
Route 1 : 45 21 95 71 3 31 53 81 
Route 2 : 23 7 73 57 33 44 83 94 
Route 3 : 12 25 75 62 16 37 66 87 
Route 4 : 34 22 43 72 93 84 
Route 5 : 17 67 9 1 51 59 
Route 6 : 38 88 11 39 61 26 89 76 
Route 7 : 47 97 40 41 90 91 36 86 
Route 8 : 49 99 2 15 52 65 
Route 9 : 20 5 30 70 80 24 55 74 
Route 10 : 46 42 96 35 10 60 92 85 
Route 11 : 8 32 82 58 19 29 79 69 
Route 12 : 13 27 63 77 
Route 13 : 6 56 48 98 18 68 
Route 14 : 4 14 64 54 

--------------------------------------------------------------------------------(Solver execution current time: 15.497817993164062)
[SOLUTION]
SBMath
IT: 7
ITs witout improving: 7
IT time: 2.1344656944274902
Time since begin: 13.127830266952515
obj_value: -48; obj_routes: 1752
Route 1 : 45 21 95 71 3 31 53 81 
Route 2 : 23 7 73 57 44 94 
Route 3 : 12 25 75 62 16 37 66 87 
Route 4 : 34 22 43 72 93 84 
Route 5 : 17 67 9 1 51 59 
Route 6 : 38 88 11 39 61 26 89 76 
Route 7 : 47 97 40 41 90 91 36 86 
Route 8 : 49 99 2 15 52 65 
Route 9 : 20 5 30 70 80 24 55 74 
Route 10 : 46 42 96 35 10 60 92 85 
Route 11 : 8 32 82 58 19 29 79 69 
Route 12 : 13 63 18 68 
Route 13 : 6 56 48 98 27 77 
Route 14 : 4 14 64 33 54 83 

--------------------------------------------------------------------------------(Solver execution current time: 15.500391483306885)
[INFO] AGES EXCLUDED
--------------------------------------------------------------------------------(Solver execution current time: 16.07494020462036)
[SOLUTION]
LNS
IT: 40
Exec Time: 0.5703325271606445
obj_value: -48; obj_routes: 1770
Route 1 : 45 21 95 71 3 31 53 81 
Route 2 : 23 7 73 57 33 44 83 94 
Route 3 : 12 25 75 62 16 37 66 87 
Route 4 : 34 22 43 72 93 84 
Route 5 : 17 67 9 1 51 59 
Route 6 : 38 88 11 39 61 26 89 76 
Route 7 : 47 97 40 41 90 91 36 86 
Route 8 : 49 99 2 15 52 65 
Route 9 : 20 5 30 70 80 24 55 74 
Route 10 : 46 42 96 35 10 60 92 85 
Route 11 : 8 32 82 58 19 29 79 69 
Route 12 : 13 27 63 77 
Route 13 : 6 56 48 98 18 68 
Route 14 : 4 14 64 54 

--------------------------------------------------------------------------------(Solver execution current time: 16.084479570388794)
[SOLUTION]
PartitionMaxRequests
Exec Time: 0.00733184814453125
obj_value: -48; obj_routes: 1770
Route 1 : 45 21 95 71 3 31 53 81 
Route 2 : 23 7 73 57 33 44 83 94 
Route 3 : 12 25 75 62 16 37 66 87 
Route 4 : 34 22 43 72 93 84 
Route 5 : 17 67 9 1 51 59 
Route 6 : 38 88 11 39 61 26 89 76 
Route 7 : 47 97 40 41 90 91 36 86 
Route 8 : 49 99 2 15 52 65 
Route 9 : 20 5 30 70 80 24 55 74 
Route 10 : 46 42 96 35 10 60 92 85 
Route 11 : 8 32 82 58 19 29 79 69 
Route 12 : 13 27 63 77 
Route 13 : 6 56 48 98 18 68 
Route 14 : 4 14 64 54 

--------------------------------------------------------------------------------(Solver execution current time: 16.77208638191223)
[SOLUTION]
Original Perturbation
Exec Time: 0.6867313385009766
obj_value: -48; obj_routes: 1770
Route 1 : 45 21 95 71 3 31 53 81 
Route 2 : 23 7 73 57 33 44 83 94 
Route 3 : 12 25 75 62 16 37 66 87 
Route 4 : 34 22 43 72 93 84 
Route 5 : 17 67 9 1 51 59 
Route 6 : 38 88 11 39 61 26 89 76 
Route 7 : 47 97 40 41 90 91 36 86 
Route 8 : 49 99 2 15 52 65 
Route 9 : 20 5 30 70 80 24 55 74 
Route 10 : 46 42 96 35 10 60 92 85 
Route 11 : 8 32 82 58 19 29 79 69 
Route 12 : 13 27 63 77 
Route 13 : 6 56 48 98 18 68 
Route 14 : 4 14 64 54 

--------------------------------------------------------------------------------(Solver execution current time: 16.77348256111145)
[SOLUTION]
SBMath
IT: 8
ITs witout improving: 8
IT time: 1.2731082439422607
Time since begin: 14.403955459594727
obj_value: -48; obj_routes: 1770
Route 1 : 45 21 95 71 3 31 53 81 
Route 2 : 23 7 73 57 33 44 83 94 
Route 3 : 12 25 75 62 16 37 66 87 
Route 4 : 34 22 43 72 93 84 
Route 5 : 17 67 9 1 51 59 
Route 6 : 38 88 11 39 61 26 89 76 
Route 7 : 47 97 40 41 90 91 36 86 
Route 8 : 49 99 2 15 52 65 
Route 9 : 20 5 30 70 80 24 55 74 
Route 10 : 46 42 96 35 10 60 92 85 
Route 11 : 8 32 82 58 19 29 79 69 
Route 12 : 13 27 63 77 
Route 13 : 6 56 48 98 18 68 
Route 14 : 4 14 64 54 

--------------------------------------------------------------------------------(Solver execution current time: 16.773736000061035)
[SOLUTION]
SBMath
IT: 8
ITs witout improving: 8
IT time: 1.2731082439422607
Time since begin: 14.403955459594727
obj_value: -48; obj_routes: 1752
Route 1 : 45 21 95 71 3 31 53 81 
Route 2 : 23 7 73 57 44 94 
Route 3 : 12 25 75 62 16 37 66 87 
Route 4 : 34 22 43 72 93 84 
Route 5 : 17 67 9 1 51 59 
Route 6 : 38 88 11 39 61 26 89 76 
Route 7 : 47 97 40 41 90 91 36 86 
Route 8 : 49 99 2 15 52 65 
Route 9 : 20 5 30 70 80 24 55 74 
Route 10 : 46 42 96 35 10 60 92 85 
Route 11 : 8 32 82 58 19 29 79 69 
Route 12 : 13 63 18 68 
Route 13 : 6 56 48 98 27 77 
Route 14 : 4 14 64 33 54 83 

--------------------------------------------------------------------------------(Solver execution current time: 16.774867296218872)
[INFO] AGES EXCLUDED
--------------------------------------------------------------------------------(Solver execution current time: 17.375866889953613)
[SOLUTION]
LNS
IT: 40
Exec Time: 0.5969245433807373
obj_value: -48; obj_routes: 1770
Route 1 : 45 21 95 71 3 31 53 81 
Route 2 : 23 7 73 57 33 44 83 94 
Route 3 : 12 25 75 62 16 37 66 87 
Route 4 : 34 22 43 72 93 84 
Route 5 : 17 67 9 1 51 59 
Route 6 : 38 88 11 39 61 26 89 76 
Route 7 : 47 97 40 41 90 91 36 86 
Route 8 : 49 99 2 15 52 65 
Route 9 : 20 5 30 70 80 24 55 74 
Route 10 : 46 42 96 35 10 60 92 85 
Route 11 : 8 32 82 58 19 29 79 69 
Route 12 : 13 27 63 77 
Route 13 : 6 56 48 98 18 68 
Route 14 : 4 14 64 54 

--------------------------------------------------------------------------------(Solver execution current time: 17.386873722076416)
[SOLUTION]
PartitionMaxRequests
Exec Time: 0.008621931076049805
obj_value: -48; obj_routes: 1770
Route 1 : 45 21 95 71 3 31 53 81 
Route 2 : 23 7 73 57 33 44 83 94 
Route 3 : 12 25 75 62 16 37 66 87 
Route 4 : 34 22 43 72 93 84 
Route 5 : 17 67 9 1 51 59 
Route 6 : 38 88 11 39 61 26 89 76 
Route 7 : 47 97 40 41 90 91 36 86 
Route 8 : 49 99 2 15 52 65 
Route 9 : 20 5 30 70 80 24 55 74 
Route 10 : 46 42 96 35 10 60 92 85 
Route 11 : 8 32 82 58 19 29 79 69 
Route 12 : 13 27 63 77 
Route 13 : 6 56 48 98 18 68 
Route 14 : 4 14 64 54 

--------------------------------------------------------------------------------(Solver execution current time: 18.1666042804718)
[SOLUTION]
Original Perturbation
Exec Time: 0.778235673904419
obj_value: -48; obj_routes: 1770
Route 1 : 45 21 95 71 3 31 53 81 
Route 2 : 23 7 73 57 33 44 83 94 
Route 3 : 12 25 75 62 16 37 66 87 
Route 4 : 34 22 43 72 93 84 
Route 5 : 17 67 9 1 51 59 
Route 6 : 38 88 11 39 61 26 89 76 
Route 7 : 47 97 40 41 90 91 36 86 
Route 8 : 49 99 2 15 52 65 
Route 9 : 20 5 30 70 80 24 55 74 
Route 10 : 46 42 96 35 10 60 92 85 
Route 11 : 8 32 82 58 19 29 79 69 
Route 12 : 13 27 63 77 
Route 13 : 6 56 48 98 18 68 
Route 14 : 4 14 64 54 

--------------------------------------------------------------------------------(Solver execution current time: 18.16779923439026)
[SOLUTION]
SBMath
IT: 9
ITs witout improving: 9
IT time: 1.3929412364959717
Time since begin: 15.79827332496643
obj_value: -48; obj_routes: 1770
Route 1 : 45 21 95 71 3 31 53 81 
Route 2 : 23 7 73 57 33 44 83 94 
Route 3 : 12 25 75 62 16 37 66 87 
Route 4 : 34 22 43 72 93 84 
Route 5 : 17 67 9 1 51 59 
Route 6 : 38 88 11 39 61 26 89 76 
Route 7 : 47 97 40 41 90 91 36 86 
Route 8 : 49 99 2 15 52 65 
Route 9 : 20 5 30 70 80 24 55 74 
Route 10 : 46 42 96 35 10 60 92 85 
Route 11 : 8 32 82 58 19 29 79 69 
Route 12 : 13 27 63 77 
Route 13 : 6 56 48 98 18 68 
Route 14 : 4 14 64 54 

--------------------------------------------------------------------------------(Solver execution current time: 18.16799521446228)
[SOLUTION]
SBMath
IT: 9
ITs witout improving: 9
IT time: 1.3929412364959717
Time since begin: 15.79827332496643
obj_value: -48; obj_routes: 1752
Route 1 : 45 21 95 71 3 31 53 81 
Route 2 : 23 7 73 57 44 94 
Route 3 : 12 25 75 62 16 37 66 87 
Route 4 : 34 22 43 72 93 84 
Route 5 : 17 67 9 1 51 59 
Route 6 : 38 88 11 39 61 26 89 76 
Route 7 : 47 97 40 41 90 91 36 86 
Route 8 : 49 99 2 15 52 65 
Route 9 : 20 5 30 70 80 24 55 74 
Route 10 : 46 42 96 35 10 60 92 85 
Route 11 : 8 32 82 58 19 29 79 69 
Route 12 : 13 63 18 68 
Route 13 : 6 56 48 98 27 77 
Route 14 : 4 14 64 33 54 83 

--------------------------------------------------------------------------------(Solver execution current time: 18.168962478637695)
[INFO] AGES EXCLUDED
--------------------------------------------------------------------------------(Solver execution current time: 18.74518632888794)
[SOLUTION]
LNS
IT: 40
Exec Time: 0.5728867053985596
obj_value: -48; obj_routes: 1770
Route 1 : 45 21 95 71 3 31 53 81 
Route 2 : 23 7 73 57 33 44 83 94 
Route 3 : 12 25 75 62 16 37 66 87 
Route 4 : 34 22 43 72 93 84 
Route 5 : 17 67 9 1 51 59 
Route 6 : 38 88 11 39 61 26 89 76 
Route 7 : 47 97 40 41 90 91 36 86 
Route 8 : 49 99 2 15 52 65 
Route 9 : 20 5 30 70 80 24 55 74 
Route 10 : 46 42 96 35 10 60 92 85 
Route 11 : 8 32 82 58 19 29 79 69 
Route 12 : 13 27 63 77 
Route 13 : 6 56 48 98 18 68 
Route 14 : 4 14 64 54 

--------------------------------------------------------------------------------(Solver execution current time: 18.75481104850769)
[SOLUTION]
PartitionMaxRequests
Exec Time: 0.0074462890625
obj_value: -48; obj_routes: 1770
Route 1 : 45 21 95 71 3 31 53 81 
Route 2 : 23 7 73 57 33 44 83 94 
Route 3 : 12 25 75 62 16 37 66 87 
Route 4 : 34 22 43 72 93 84 
Route 5 : 17 67 9 1 51 59 
Route 6 : 38 88 11 39 61 26 89 76 
Route 7 : 47 97 40 41 90 91 36 86 
Route 8 : 49 99 2 15 52 65 
Route 9 : 20 5 30 70 80 24 55 74 
Route 10 : 46 42 96 35 10 60 92 85 
Route 11 : 8 32 82 58 19 29 79 69 
Route 12 : 13 27 63 77 
Route 13 : 6 56 48 98 18 68 
Route 14 : 4 14 64 54 

--------------------------------------------------------------------------------(Solver execution current time: 19.610482692718506)
[SOLUTION]
Original Perturbation
Exec Time: 0.8548097610473633
obj_value: -48; obj_routes: 1770
Route 1 : 45 21 95 71 3 31 53 81 
Route 2 : 23 7 73 57 33 44 83 94 
Route 3 : 12 25 75 62 16 37 66 87 
Route 4 : 34 22 43 72 93 84 
Route 5 : 17 67 9 1 51 59 
Route 6 : 38 88 11 39 61 26 89 76 
Route 7 : 47 97 40 41 90 91 36 86 
Route 8 : 49 99 2 15 52 65 
Route 9 : 20 5 30 70 80 24 55 74 
Route 10 : 46 42 96 35 10 60 92 85 
Route 11 : 8 32 82 58 19 29 79 69 
Route 12 : 13 27 63 77 
Route 13 : 6 56 48 98 18 68 
Route 14 : 4 14 64 54 

--------------------------------------------------------------------------------(Solver execution current time: 19.61165142059326)
[SOLUTION]
SBMath
IT: 10
ITs witout improving: 10
IT time: 1.4426956176757812
Time since begin: 17.242125511169434
obj_value: -48; obj_routes: 1770
Route 1 : 45 21 95 71 3 31 53 81 
Route 2 : 23 7 73 57 33 44 83 94 
Route 3 : 12 25 75 62 16 37 66 87 
Route 4 : 34 22 43 72 93 84 
Route 5 : 17 67 9 1 51 59 
Route 6 : 38 88 11 39 61 26 89 76 
Route 7 : 47 97 40 41 90 91 36 86 
Route 8 : 49 99 2 15 52 65 
Route 9 : 20 5 30 70 80 24 55 74 
Route 10 : 46 42 96 35 10 60 92 85 
Route 11 : 8 32 82 58 19 29 79 69 
Route 12 : 13 27 63 77 
Route 13 : 6 56 48 98 18 68 
Route 14 : 4 14 64 54 

--------------------------------------------------------------------------------(Solver execution current time: 19.611863136291504)
[SOLUTION]
SBMath
IT: 10
ITs witout improving: 10
IT time: 1.4426956176757812
Time since begin: 17.242125511169434
obj_value: -48; obj_routes: 1752
Route 1 : 45 21 95 71 3 31 53 81 
Route 2 : 23 7 73 57 44 94 
Route 3 : 12 25 75 62 16 37 66 87 
Route 4 : 34 22 43 72 93 84 
Route 5 : 17 67 9 1 51 59 
Route 6 : 38 88 11 39 61 26 89 76 
Route 7 : 47 97 40 41 90 91 36 86 
Route 8 : 49 99 2 15 52 65 
Route 9 : 20 5 30 70 80 24 55 74 
Route 10 : 46 42 96 35 10 60 92 85 
Route 11 : 8 32 82 58 19 29 79 69 
Route 12 : 13 63 18 68 
Route 13 : 6 56 48 98 27 77 
Route 14 : 4 14 64 33 54 83 

--------------------------------------------------------------------------------(Solver execution current time: 19.612886905670166)
[INFO] AGES EXCLUDED
--------------------------------------------------------------------------------(Solver execution current time: 20.040176153182983)
[WARNING] Time Limit Exceeded
--------------------------------------------------------------------------------(Solver execution current time: 20.040377616882324)
[WARNING] Searching current best solution.
--------------------------------------------------------------------------------(Solver execution current time: 20.0424063205719)
[WARNING] Current best solution found.
--------------------------------------------------------------------------------(Solver execution current time: 20.043118953704834)
[INFO] Algorithm execution time : 20.043859243392944
--------------------------------------------------------------------------------(Solver execution current time: 20.043766260147095)
[SOLUTION]
Final Solution Verification
====================================
Constraints verification: 
Homogenous Capacity Constraint OK
Time Windwos Constraint OK
Pickup and Delivery Constraint OK
Fixed Requests Constraint OK
Limited Fleet Constraint OK
Heterogeneous Fleet Constraint NOT OK FOR THESE ROUTES
====================================
Obj Func verification: 
SOLUTION COST OK
------------------------------------
ROUTES TOTAL COST OK
------------------------------------
REQUESTS TOTAL COST OK
------------------------------------
OBJECTIVE VALUE: -48
ROUTES VALUE: 1770
------------------------------------

Best Solution: 
obj_value: -48; obj_routes: 1770
Route 1 : 45 21 95 71 3 31 53 81 
Route 2 : 23 7 73 57 33 44 83 94 
Route 3 : 12 25 75 62 16 37 66 87 
Route 4 : 34 22 43 72 93 84 
Route 5 : 17 67 9 1 51 59 
Route 6 : 38 88 11 39 61 26 89 76 
Route 7 : 47 97 40 41 90 91 36 86 
Route 8 : 49 99 2 15 52 65 
Route 9 : 20 5 30 70 80 24 55 74 
Route 10 : 46 42 96 35 10 60 92 85 
Route 11 : 8 32 82 58 19 29 79 69 
Route 12 : 13 27 63 77 
Route 13 : 6 56 48 98 18 68 
Route 14 : 4 14 64 54 

--------------------------------------------------------------------------------